741,406
168,240
639,140
947,448
635,702
488,140
888,374
1093,705
945,42
1028,583
685,435
681,676
504,378
317,670
729,371
518,86
681,736
769,527
539,452
921,284
576,261
765,322
734,433
681,706
998,842
463,248
644,643
755,634
1108,189
201,406
